p cnf 115 160
1 5 26 0
9 13 -26 0
2 6 28 0
10 14 -28 0
3 7 30 0
11 15 -30 0
4 8 32 0
12 16 -32 0
-1 -5 35 0
-1 -5 -35 0
-1 -9 36 0
-1 -9 -36 0
-1 -13 37 0
-1 -13 -37 0
-5 -9 38 0
-5 -9 -38 0
-5 -13 39 0
-5 -13 -39 0
-9 -13 40 0
-9 -13 -40 0
-2 -6 41 0
-2 -6 -41 0
-2 -10 42 0
-2 -10 -42 0
-2 -14 43 0
-2 -14 -43 0
-6 -10 44 0
-6 -10 -44 0
-6 -14 45 0
-6 -14 -45 0
-10 -14 46 0
-10 -14 -46 0
-3 -7 47 0
-3 -7 -47 0
-3 -11 48 0
-3 -11 -48 0
-3 -15 49 0
-3 -15 -49 0
-7 -11 50 0
-7 -11 -50 0
-7 -15 51 0
-7 -15 -51 0
-11 -15 52 0
-11 -15 -52 0
-4 -8 53 0
-4 -8 -53 0
-4 -12 54 0
-4 -12 -54 0
-4 -16 55 0
-4 -16 -55 0
-8 -12 56 0
-8 -12 -56 0
-8 -16 57 0
-8 -16 -57 0
-12 -16 58 0
-12 -16 -58 0
-1 -2 59 0
-1 -2 -59 0
-1 -3 60 0
-1 -3 -60 0
-1 -4 61 0
-1 -4 -61 0
-2 -3 62 0
-2 -3 -62 0
-2 -4 63 0
-2 -4 -63 0
-3 -4 64 0
-3 -4 -64 0
-5 -6 65 0
-5 -6 -65 0
-5 -7 66 0
-5 -7 -66 0
-5 -8 67 0
-5 -8 -67 0
-6 -7 68 0
-6 -7 -68 0
-6 -8 69 0
-6 -8 -69 0
-7 -8 70 0
-7 -8 -70 0
-9 -10 71 0
-9 -10 -71 0
-9 -11 72 0
-9 -11 -72 0
-9 -12 73 0
-9 -12 -73 0
-10 -11 74 0
-10 -11 -74 0
-10 -12 75 0
-10 -12 -75 0
-11 -12 76 0
-11 -12 -76 0
-13 -14 77 0
-13 -14 -77 0
-13 -15 78 0
-13 -15 -78 0
-13 -16 79 0
-13 -16 -79 0
-14 -15 80 0
-14 -15 -80 0
-14 -16 81 0
-14 -16 -81 0
-15 -16 82 0
-15 -16 -82 0
17 20 23 0
18 21 24 0
19 22 25 0
-17 -20 83 0
-17 -20 -83 0
-17 -23 84 0
-17 -23 -84 0
-20 -23 85 0
-20 -23 -85 0
-18 -21 86 0
-18 -21 -86 0
-18 -24 87 0
-18 -24 -87 0
-21 -24 88 0
-21 -24 -88 0
-19 -22 89 0
-19 -22 -89 0
-19 -25 90 0
-19 -25 -90 0
-22 -25 91 0
-22 -25 -91 0
-17 -18 92 0
-17 -18 -92 0
-17 -19 93 0
-17 -19 -93 0
-18 -19 94 0
-18 -19 -94 0
-20 -21 95 0
-20 -21 -95 0
-20 -22 96 0
-20 -22 -96 0
-21 -22 97 0
-21 -22 -97 0
-23 -24 98 0
-23 -24 -98 0
-23 -25 99 0
-23 -25 -99 0
-24 -25 100 0
-24 -25 -100 0
17 18 100 0
19 -13 -100 0
17 18 102 0
19 -14 -102 0
17 18 104 0
19 -15 -104 0
17 18 106 0
19 -16 -106 0
13 14 108 0
15 -108 109 0
16 -17 -109 0
13 14 111 0
15 -111 112 0
16 -18 -112 0
13 14 114 0
15 -114 115 0
16 -19 -115 0
